JulietBench/Juliet_Based_Patch_Bench/linux/CWE-189-Numeric-Errors/CVE_2012_4565_8f363b77ee4fbf7c3bbcf5ec2c5ca482d396d664/Resulttcp_illinois_info_Snippet_patch2EQ.smt2
; benchmark generated from python API
(set-info :status unknown)
(declare-fun R () (_ BitVec 32))
(declare-fun rsi () (_ BitVec 64))
(declare-fun rdi () (_ BitVec 64))
(assert
 (let (($x106 (= (_ bv0 32) R)))
 (let ((?x37 ((_ extract 7 0) rsi)))
 (let ((?x20 (bvand ?x37 (_ bv8 8))))
 (let (($x35 (= (_ bv0 8) ?x20)))
 (let (($x99 (and $x35 $x106)))
 (let (($x110 (= (_ bv1 32) R)))
 (let (($x78 (and (distinct (_ bv0 8) ?x20) true)))
 (let (($x111 (and $x78 $x110)))
 (let (($x112 (or $x111 $x99)))
 (let ((?x12 ((_ extract 15 0) rdi)))
 (let ((?x90 (concat (_ bv0 16) ?x12)))
 (let (($x91 (= R ?x90)))
 (let (($x96 (and $x78 $x91)))
 (let (($x103 (or $x96 $x99)))
 (and $x103 $x112))))))))))))))))
(check-sat)
